\ENCODING=ISO-8859-1
\Problem name: IloCplex

Minimize
 obj1: 5.30000019073486 x_{0,1,0}#0 + 5.30000019073486 x_{0,1,1}#1
       + 9.03999996185303 x_{0,2,0}#2 + 9.03999996185303 x_{0,2,1}#3
       + 6.6100001335144 x_{0,3,0}#4 + 6.6100001335144 x_{0,3,1}#5
       + 7.46000003814697 x_{0,4,0}#6 + 7.46000003814697 x_{0,4,1}#7
       + 5.30000019073486 x_{1,0,0}#8 + 5.30000019073486 x_{1,0,1}#9
       + 14.0200004577637 x_{1,2,0}#10 + 14.0200004577637 x_{1,2,1}#11
       + 7.53000020980835 x_{1,3,0}#12 + 7.53000020980835 x_{1,3,1}#13
       + 7.3899998664856 x_{1,4,0}#14 + 7.3899998664856 x_{1,4,1}#15
       + 5.30000019073486 x_{1,5,0}#16 + 5.30000019073486 x_{1,5,1}#17
       + 9.03999996185303 x_{2,0,0}#18 + 9.03999996185303 x_{2,0,1}#19
       + 14.0200004577637 x_{2,1,0}#20 + 14.0200004577637 x_{2,1,1}#21
       + 14.0799999237061 x_{2,3,0}#22 + 14.0799999237061 x_{2,3,1}#23
       + 15.3400001525879 x_{2,4,0}#24 + 15.3400001525879 x_{2,4,1}#25
       + 9.03999996185303 x_{2,5,0}#26 + 9.03999996185303 x_{2,5,1}#27
       + 6.6100001335144 x_{3,0,0}#28 + 6.6100001335144 x_{3,0,1}#29
       + 7.53000020980835 x_{3,1,0}#30 + 7.53000020980835 x_{3,1,1}#31
       + 14.0799999237061 x_{3,2,0}#32 + 14.0799999237061 x_{3,2,1}#33
       + 1.39999997615814 x_{3,4,0}#34 + 1.39999997615814 x_{3,4,1}#35
       + 6.6100001335144 x_{3,5,0}#36 + 6.6100001335144 x_{3,5,1}#37
       + 7.46000003814697 x_{4,0,0}#38 + 7.46000003814697 x_{4,0,1}#39
       + 7.3899998664856 x_{4,1,0}#40 + 7.3899998664856 x_{4,1,1}#41
       + 15.3400001525879 x_{4,2,0}#42 + 15.3400001525879 x_{4,2,1}#43
       + 1.39999997615814 x_{4,3,0}#44 + 1.39999997615814 x_{4,3,1}#45
       + 7.46000003814697 x_{4,5,0}#46 + 7.46000003814697 x_{4,5,1}#47
       + 5.30000019073486 x_{5,1,0}#48 + 5.30000019073486 x_{5,1,1}#49
       + 9.03999996185303 x_{5,2,0}#50 + 9.03999996185303 x_{5,2,1}#51
       + 6.6100001335144 x_{5,3,0}#52 + 6.6100001335144 x_{5,3,1}#53
       + 7.46000003814697 x_{5,4,0}#54 + 7.46000003814697 x_{5,4,1}#55
Subject To
 c1:                      x_{0,0,0}#56  = 0
 c2:                      x_{1,1,0}#57  = 0
 c3:                      x_{2,2,0}#58  = 0
 c4:                      x_{3,3,0}#59  = 0
 c5:                      x_{4,4,0}#60  = 0
 c6:                      x_{5,5,0}#61  = 0
 c7:                      x_{1,0,0}#8  = 0
 c8:                      x_{2,0,0}#18  = 0
 c9:                      x_{3,0,0}#28  = 0
 c10:                     x_{4,0,0}#38  = 0
 c11:                     x_{5,0,0}#62  = 0
 c12:                     x_{5,0,0}#62  = 0
 c13:                     x_{5,1,0}#48  = 0
 c14:                     x_{5,2,0}#50  = 0
 c15:                     x_{5,3,0}#52  = 0
 c16:                     x_{5,4,0}#54  = 0
 c17:                     x_{1,5,0}#16  = 0
 c18:                     x_{3,1,0}#30  = 0
 c19:                     x_{2,5,0}#26  = 0
 c20:                     x_{4,2,0}#42  = 0
 c21:                     x_{0,3,0}#4  = 0
 c22:                     x_{0,4,0}#6  = 0
 c23:                     x_{0,0,1}#63  = 0
 c24:                     x_{1,1,1}#64  = 0
 c25:                     x_{2,2,1}#65  = 0
 c26:                     x_{3,3,1}#66  = 0
 c27:                     x_{4,4,1}#67  = 0
 c28:                     x_{5,5,1}#68  = 0
 c29:                     x_{1,0,1}#9  = 0
 c30:                     x_{2,0,1}#19  = 0
 c31:                     x_{3,0,1}#29  = 0
 c32:                     x_{4,0,1}#39  = 0
 c33:                     x_{5,0,1}#69  = 0
 c34:                     x_{5,0,1}#69  = 0
 c35:                     x_{5,1,1}#49  = 0
 c36:                     x_{5,2,1}#51  = 0
 c37:                     x_{5,3,1}#53  = 0
 c38:                     x_{5,4,1}#55  = 0
 c39:                     x_{1,5,1}#17  = 0
 c40:                     x_{3,1,1}#31  = 0
 c41:                     x_{2,5,1}#27  = 0
 c42:                     x_{4,2,1}#43  = 0
 c43:                     x_{0,3,1}#5  = 0
 c44:                     x_{0,4,1}#7  = 0
 c45:                     x_{1,2,0}#10  = 0
 c46:                     x_{1,2,1}#11  = 0
 c47:                     x_{2,3,0}#22  = 0
 c48:                     x_{2,3,1}#23  = 0
 pick_up_1:               x_{1,0,0}#8 + x_{1,0,1}#9 + x_{1,2,0}#10
                          + x_{1,2,1}#11 + x_{1,3,0}#12 + x_{1,3,1}#13
                          + x_{1,4,0}#14 + x_{1,4,1}#15 + x_{1,5,0}#16
                          + x_{1,5,1}#17  = 1
 pick_up_2:               x_{2,0,0}#18 + x_{2,0,1}#19 + x_{2,1,0}#20
                          + x_{2,1,1}#21 + x_{2,3,0}#22 + x_{2,3,1}#23
                          + x_{2,4,0}#24 + x_{2,4,1}#25 + x_{2,5,0}#26
                          + x_{2,5,1}#27  = 1
 drop_off_{0,1}:          x_{1,0,0}#8 + x_{1,2,0}#10 + x_{1,3,0}#12
                          + x_{1,4,0}#14 + x_{1,5,0}#16 - x_{3,0,0}#28
                          - x_{3,1,0}#30 - x_{3,2,0}#32 - x_{3,4,0}#34
                          - x_{3,5,0}#36  = 0
 drop_off_{0,2}:          x_{2,0,0}#18 + x_{2,1,0}#20 + x_{2,3,0}#22
                          + x_{2,4,0}#24 + x_{2,5,0}#26 - x_{4,0,0}#38
                          - x_{4,1,0}#40 - x_{4,2,0}#42 - x_{4,3,0}#44
                          - x_{4,5,0}#46  = 0
 drop_off_{1,1}:          x_{1,0,1}#9 + x_{1,2,1}#11 + x_{1,3,1}#13
                          + x_{1,4,1}#15 + x_{1,5,1}#17 - x_{3,0,1}#29
                          - x_{3,1,1}#31 - x_{3,2,1}#33 - x_{3,4,1}#35
                          - x_{3,5,1}#37  = 0
 drop_off_{1,2}:          x_{2,0,1}#19 + x_{2,1,1}#21 + x_{2,3,1}#23
                          + x_{2,4,1}#25 + x_{2,5,1}#27 - x_{4,0,1}#39
                          - x_{4,1,1}#41 - x_{4,2,1}#43 - x_{4,3,1}#45
                          - x_{4,5,1}#47  = 0
 leave_depot_0:           x_{0,1,0}#0 + x_{0,2,0}#2 + x_{0,3,0}#4 + x_{0,4,0}#6
                          + x_{0,5,0}#70  = 1
 leave_depot_1:           x_{0,1,1}#1 + x_{0,2,1}#3 + x_{0,3,1}#5 + x_{0,4,1}#7
                          + x_{0,5,1}#71  = 1
 flow_preservation_{0,1}: x_{0,1,0}#0 - x_{1,0,0}#8 - x_{1,2,0}#10
                          - x_{1,3,0}#12 - x_{1,4,0}#14 - x_{1,5,0}#16
                          + x_{2,1,0}#20 + x_{3,1,0}#30 + x_{4,1,0}#40
                          + x_{5,1,0}#48  = 0
 flow_preservation_{0,2}: x_{0,2,0}#2 + x_{1,2,0}#10 - x_{2,0,0}#18
                          - x_{2,1,0}#20 - x_{2,3,0}#22 - x_{2,4,0}#24
                          - x_{2,5,0}#26 + x_{3,2,0}#32 + x_{4,2,0}#42
                          + x_{5,2,0}#50  = 0
 flow_preservation_{0,3}: x_{0,3,0}#4 + x_{1,3,0}#12 + x_{2,3,0}#22
                          - x_{3,0,0}#28 - x_{3,1,0}#30 - x_{3,2,0}#32
                          - x_{3,4,0}#34 - x_{3,5,0}#36 + x_{4,3,0}#44
                          + x_{5,3,0}#52  = 0
 flow_preservation_{0,4}: x_{0,4,0}#6 + x_{1,4,0}#14 + x_{2,4,0}#24
                          + x_{3,4,0}#34 - x_{4,0,0}#38 - x_{4,1,0}#40
                          - x_{4,2,0}#42 - x_{4,3,0}#44 - x_{4,5,0}#46
                          + x_{5,4,0}#54  = 0
 flow_preservation_{1,1}: x_{0,1,1}#1 - x_{1,0,1}#9 - x_{1,2,1}#11
                          - x_{1,3,1}#13 - x_{1,4,1}#15 - x_{1,5,1}#17
                          + x_{2,1,1}#21 + x_{3,1,1}#31 + x_{4,1,1}#41
                          + x_{5,1,1}#49  = 0
 flow_preservation_{1,2}: x_{0,2,1}#3 + x_{1,2,1}#11 - x_{2,0,1}#19
                          - x_{2,1,1}#21 - x_{2,3,1}#23 - x_{2,4,1}#25
                          - x_{2,5,1}#27 + x_{3,2,1}#33 + x_{4,2,1}#43
                          + x_{5,2,1}#51  = 0
 flow_preservation_{1,3}: x_{0,3,1}#5 + x_{1,3,1}#13 + x_{2,3,1}#23
                          - x_{3,0,1}#29 - x_{3,1,1}#31 - x_{3,2,1}#33
                          - x_{3,4,1}#35 - x_{3,5,1}#37 + x_{4,3,1}#45
                          + x_{5,3,1}#53  = 0
 flow_preservation_{1,4}: x_{0,4,1}#7 + x_{1,4,1}#15 + x_{2,4,1}#25
                          + x_{3,4,1}#35 - x_{4,0,1}#39 - x_{4,1,1}#41
                          - x_{4,2,1}#43 - x_{4,3,1}#45 - x_{4,5,1}#47
                          + x_{5,4,1}#55  = 0
 return_depot_0:          x_{1,5,0}#16 + x_{2,5,0}#26 + x_{3,5,0}#36
                          + x_{4,5,0}#46 + x_{0,5,0}#70  = 1
 return_depot_1:          x_{1,5,1}#17 + x_{2,5,1}#27 + x_{3,5,1}#37
                          + x_{4,5,1}#47 + x_{0,5,1}#71  = 1
 c67:                     485.300000190735 x_{0,1,0}#0 - B_1#72 + B_0c0#73
                          <= 480
 c68:                     489.039999961853 x_{0,2,0}#2 + B_0c0#73 - B_2#74
                          <= 480
 c69:                     476.079999923706 x_{0,3,0}#4 + B_0c0#73 - B_3#75
                          <= 469.469999790192
 c70:                     469.119999885559 x_{0,4,0}#6 + B_0c0#73 - B_4#76
                          <= 461.659999847412
 c71:                     485.300000190735 x_{0,1,1}#1 - B_1#72 + B_0c1#77
                          <= 480
 c72:                     489.039999961853 x_{0,2,1}#3 - B_2#74 + B_0c1#77
                          <= 480
 c73:                     476.079999923706 x_{0,3,1}#5 - B_3#75 + B_0c1#77
                          <= 469.469999790192
 c74:                     469.119999885559 x_{0,4,1}#7 - B_4#76 + B_0c1#77
                          <= 461.659999847412
 c75:                     1446.49000024796 x_{1,2,0}#10
                          + 1446.49000024796 x_{1,2,1}#11 + B_1#72 - B_2#74
                          <= 1429.46999979019
 c76:                     1429.46999979019 x_{1,3,0}#12
                          + 1429.46999979019 x_{1,3,1}#13 + B_1#72 - B_3#75
                          <= 1418.93999958038
 c77:                     1421.51999950409 x_{1,4,0}#14
                          + 1421.51999950409 x_{1,4,1}#15 + B_1#72 - B_4#76
                          <= 1411.1299996376
 c78:                     1438.68000030518 x_{2,1,0}#20
                          + 1438.68000030518 x_{2,1,1}#21 - B_1#72 + B_2#74
                          <= 1421.65999984741
 c79:                     1428.20999956131 x_{2,3,0}#22
                          + 1428.20999956131 x_{2,3,1}#23 + B_2#74 - B_3#75
                          <= 1411.1299996376
 c80:                     1421.65999984741 x_{2,4,0}#24
                          + 1421.65999984741 x_{2,4,1}#25 + B_2#74 - B_4#76
                          <= 1403.31999969482
 c81:                     1473 x_{3,1,0}#30 + 1473 x_{3,1,1}#31 - B_1#72
                          + B_3#75 <= 1462.46999979019
 c82:                     1479.5499997139 x_{3,2,0}#32
                          + 1479.5499997139 x_{3,2,1}#33 - B_2#74 + B_3#75
                          <= 1462.46999979019
 c83:                     1448.52999961376 x_{3,4,0}#34
                          + 1448.52999961376 x_{3,4,1}#35 + B_3#75 - B_4#76
                          <= 1444.1299996376
 c84:                     1465.0499997139 x_{4,1,0}#40
                          + 1465.0499997139 x_{4,1,1}#41 - B_1#72 + B_4#76
                          <= 1454.65999984741
 c85:                     1473 x_{4,2,0}#42 + 1473 x_{4,2,1}#43 - B_2#74
                          + B_4#76 <= 1454.65999984741
 c86:                     1448.52999961376 x_{4,3,0}#44
                          + 1448.52999961376 x_{4,3,1}#45 - B_3#75 + B_4#76
                          <= 1444.1299996376
 c87:                     1437.76999998093 x_{1,5,0}#16 + B_1#72
                          - B_{2np1}c0#78 <= 1429.46999979019
 c88:                     1433.69999980927 x_{2,5,0}#26 + B_2#74
                          - B_{2np1}c0#78 <= 1421.65999984741
 c89:                     1472.07999992371 x_{3,5,0}#36 + B_3#75
                          - B_{2np1}c0#78 <= 1462.46999979019
 c90:                     1465.11999988556 x_{4,5,0}#46 + B_4#76
                          - B_{2np1}c0#78 <= 1454.65999984741
 c91:                     1437.76999998093 x_{1,5,1}#17 + B_1#72
                          - B_{2np1}c1#79 <= 1429.46999979019
 c92:                     1433.69999980927 x_{2,5,1}#27 + B_2#74
                          - B_{2np1}c1#79 <= 1421.65999984741
 c93:                     1472.07999992371 x_{3,5,1}#37 + B_3#75
                          - B_{2np1}c1#79 <= 1462.46999979019
 c94:                     1465.11999988556 x_{4,5,1}#47 + B_4#76
                          - B_{2np1}c1#79 <= 1454.65999984741
 c95:                     480 x_{0,5,0}#70 + B_0c0#73 - B_{2np1}c0#78 <= 480
 c96:                     480 x_{0,5,1}#71 + B_0c1#77 - B_{2np1}c1#79 <= 480
 ride_time_1:             B_1#72 - B_3#75 + L_1#80  = -3
 ride_time_2:             B_2#74 - B_4#76 + L_2#81  = -3
 c99:                     3 x_{0,1,0}#0 - Q_1#82 + Q_0c0#83 <= 2
 c100:                    3 x_{0,2,0}#2 + Q_0c0#83 - Q_2#84 <= 2
 c101:                    3 x_{0,3,0}#4 + Q_0c0#83 - Q_3#85 <= 2
 c102:                    3 x_{0,4,0}#6 + Q_0c0#83 - Q_4#86 <= 2
 c103:                    3 x_{0,1,1}#1 - Q_1#82 + Q_0c1#87 <= 2
 c104:                    3 x_{0,2,1}#3 - Q_2#84 + Q_0c1#87 <= 2
 c105:                    3 x_{0,3,1}#5 - Q_3#85 + Q_0c1#87 <= 2
 c106:                    3 x_{0,4,1}#7 - Q_4#86 + Q_0c1#87 <= 2
 c107:                    3 x_{1,2,0}#10 + 3 x_{1,2,1}#11 + x_{2,1,0}#20
                          + x_{2,1,1}#21 + Q_1#82 - Q_2#84 <= 2
 c108:                    3 x_{1,3,0}#12 + 3 x_{1,3,1}#13 + x_{3,1,0}#30
                          + x_{3,1,1}#31 + Q_1#82 - Q_3#85 <= 2
 c109:                    3 x_{1,4,0}#14 + 3 x_{1,4,1}#15 + x_{4,1,0}#40
                          + x_{4,1,1}#41 + Q_1#82 - Q_4#86 <= 2
 c110:                    x_{1,2,0}#10 + x_{1,2,1}#11 + 3 x_{2,1,0}#20
                          + 3 x_{2,1,1}#21 - Q_1#82 + Q_2#84 <= 2
 c111:                    3 x_{2,3,0}#22 + 3 x_{2,3,1}#23 + x_{3,2,0}#32
                          + x_{3,2,1}#33 + Q_2#84 - Q_3#85 <= 2
 c112:                    3 x_{2,4,0}#24 + 3 x_{2,4,1}#25 + x_{4,2,0}#42
                          + x_{4,2,1}#43 + Q_2#84 - Q_4#86 <= 2
 c113:                    x_{1,3,0}#12 + x_{1,3,1}#13 + 3 x_{3,1,0}#30
                          + 3 x_{3,1,1}#31 - Q_1#82 + Q_3#85 <= 2
 c114:                    x_{2,3,0}#22 + x_{2,3,1}#23 + 3 x_{3,2,0}#32
                          + 3 x_{3,2,1}#33 - Q_2#84 + Q_3#85 <= 2
 c115:                    3 x_{3,4,0}#34 + 3 x_{3,4,1}#35 + x_{4,3,0}#44
                          + x_{4,3,1}#45 + Q_3#85 - Q_4#86 <= 2
 c116:                    x_{1,4,0}#14 + x_{1,4,1}#15 + 3 x_{4,1,0}#40
                          + 3 x_{4,1,1}#41 - Q_1#82 + Q_4#86 <= 2
 c117:                    x_{2,4,0}#24 + x_{2,4,1}#25 + 3 x_{4,2,0}#42
                          + 3 x_{4,2,1}#43 - Q_2#84 + Q_4#86 <= 2
 c118:                    x_{3,4,0}#34 + x_{3,4,1}#35 + 3 x_{4,3,0}#44
                          + 3 x_{4,3,1}#45 - Q_3#85 + Q_4#86 <= 2
 c119:                    3 x_{1,5,0}#16 + Q_1#82 - Q_{2np1}c0#88 <= 3
 c120:                    3 x_{2,5,0}#26 + Q_2#84 - Q_{2np1}c0#88 <= 3
 c121:                    3 x_{3,5,0}#36 + Q_3#85 - Q_{2np1}c0#88 <= 3
 c122:                    3 x_{4,5,0}#46 + Q_4#86 - Q_{2np1}c0#88 <= 3
 c123:                    3 x_{1,5,1}#17 + Q_1#82 - Q_{2np1}c1#89 <= 3
 c124:                    3 x_{2,5,1}#27 + Q_2#84 - Q_{2np1}c1#89 <= 3
 c125:                    3 x_{3,5,1}#37 + Q_3#85 - Q_{2np1}c1#89 <= 3
 c126:                    3 x_{4,5,1}#47 + Q_4#86 - Q_{2np1}c1#89 <= 3
 c127:                    3 x_{0,5,0}#70 + Q_0c0#83 - Q_{2np1}c0#88 <= 3
 c128:                    3 x_{0,5,1}#71 + Q_0c1#87 - Q_{2np1}c1#89 <= 3
 c129:                    - B_0c0#73 + B_{2np1}c0#78 <= 480
 c130:                    - B_0c1#77 + B_{2np1}c1#79 <= 480
Bounds
 0 <= x_{0,1,0}#0 <= 1
 0 <= x_{0,1,1}#1 <= 1
 0 <= x_{0,2,0}#2 <= 1
 0 <= x_{0,2,1}#3 <= 1
 0 <= x_{0,3,0}#4 <= 1
 0 <= x_{0,3,1}#5 <= 1
 0 <= x_{0,4,0}#6 <= 1
 0 <= x_{0,4,1}#7 <= 1
 0 <= x_{1,0,0}#8 <= 1
 0 <= x_{1,0,1}#9 <= 1
 0 <= x_{1,2,0}#10 <= 1
 0 <= x_{1,2,1}#11 <= 1
 0 <= x_{1,3,0}#12 <= 1
 0 <= x_{1,3,1}#13 <= 1
 0 <= x_{1,4,0}#14 <= 1
 0 <= x_{1,4,1}#15 <= 1
 0 <= x_{1,5,0}#16 <= 1
 0 <= x_{1,5,1}#17 <= 1
 0 <= x_{2,0,0}#18 <= 1
 0 <= x_{2,0,1}#19 <= 1
 0 <= x_{2,1,0}#20 <= 1
 0 <= x_{2,1,1}#21 <= 1
 0 <= x_{2,3,0}#22 <= 1
 0 <= x_{2,3,1}#23 <= 1
 0 <= x_{2,4,0}#24 <= 1
 0 <= x_{2,4,1}#25 <= 1
 0 <= x_{2,5,0}#26 <= 1
 0 <= x_{2,5,1}#27 <= 1
 0 <= x_{3,0,0}#28 <= 1
 0 <= x_{3,0,1}#29 <= 1
 0 <= x_{3,1,0}#30 <= 1
 0 <= x_{3,1,1}#31 <= 1
 0 <= x_{3,2,0}#32 <= 1
 0 <= x_{3,2,1}#33 <= 1
 0 <= x_{3,4,0}#34 <= 1
 0 <= x_{3,4,1}#35 <= 1
 0 <= x_{3,5,0}#36 <= 1
 0 <= x_{3,5,1}#37 <= 1
 0 <= x_{4,0,0}#38 <= 1
 0 <= x_{4,0,1}#39 <= 1
 0 <= x_{4,1,0}#40 <= 1
 0 <= x_{4,1,1}#41 <= 1
 0 <= x_{4,2,0}#42 <= 1
 0 <= x_{4,2,1}#43 <= 1
 0 <= x_{4,3,0}#44 <= 1
 0 <= x_{4,3,1}#45 <= 1
 0 <= x_{4,5,0}#46 <= 1
 0 <= x_{4,5,1}#47 <= 1
 0 <= x_{5,1,0}#48 <= 1
 0 <= x_{5,1,1}#49 <= 1
 0 <= x_{5,2,0}#50 <= 1
 0 <= x_{5,2,1}#51 <= 1
 0 <= x_{5,3,0}#52 <= 1
 0 <= x_{5,3,1}#53 <= 1
 0 <= x_{5,4,0}#54 <= 1
 0 <= x_{5,4,1}#55 <= 1
 0 <= x_{0,0,0}#56 <= 1
 0 <= x_{1,1,0}#57 <= 1
 0 <= x_{2,2,0}#58 <= 1
 0 <= x_{3,3,0}#59 <= 1
 0 <= x_{4,4,0}#60 <= 1
 0 <= x_{5,5,0}#61 <= 1
 0 <= x_{5,0,0}#62 <= 1
 0 <= x_{0,0,1}#63 <= 1
 0 <= x_{1,1,1}#64 <= 1
 0 <= x_{2,2,1}#65 <= 1
 0 <= x_{3,3,1}#66 <= 1
 0 <= x_{4,4,1}#67 <= 1
 0 <= x_{5,5,1}#68 <= 1
 0 <= x_{5,0,1}#69 <= 1
 0 <= x_{0,5,0}#70 <= 1
 0 <= x_{0,5,1}#71 <= 1
 0 <= B_1#72 <= 1429.46999979019
 0 <= B_0c0#73 <= 480
 0 <= B_2#74 <= 1421.65999984741
 10.5300002098083 <= B_3#75 <= 1462.46999979019
 18.3400001525879 <= B_4#76 <= 1454.65999984741
 0 <= B_0c1#77 <= 480
 0 <= B_{2np1}c0#78 <= 480
 0 <= B_{2np1}c1#79 <= 480
 7.53000020980835 <= L_1#80 <= 30
 15.3400001525879 <= L_2#81 <= 30
 1 <= Q_1#82 <= 3
 0 <= Q_0c0#83 <= 3
 1 <= Q_2#84 <= 3
 1 <= Q_3#85 <= 3
 1 <= Q_4#86 <= 3
 0 <= Q_0c1#87 <= 3
 0 <= Q_{2np1}c0#88 <= 3
 0 <= Q_{2np1}c1#89 <= 3
Binaries
 x_{0,1,0}#0  x_{0,1,1}#1  x_{0,2,0}#2  x_{0,2,1}#3  x_{0,3,0}#4  x_{0,3,1}#5 
 x_{0,4,0}#6  x_{0,4,1}#7  x_{1,0,0}#8  x_{1,0,1}#9  x_{1,2,0}#10 
 x_{1,2,1}#11  x_{1,3,0}#12  x_{1,3,1}#13  x_{1,4,0}#14  x_{1,4,1}#15 
 x_{1,5,0}#16  x_{1,5,1}#17  x_{2,0,0}#18  x_{2,0,1}#19  x_{2,1,0}#20 
 x_{2,1,1}#21  x_{2,3,0}#22  x_{2,3,1}#23  x_{2,4,0}#24  x_{2,4,1}#25 
 x_{2,5,0}#26  x_{2,5,1}#27  x_{3,0,0}#28  x_{3,0,1}#29  x_{3,1,0}#30 
 x_{3,1,1}#31  x_{3,2,0}#32  x_{3,2,1}#33  x_{3,4,0}#34  x_{3,4,1}#35 
 x_{3,5,0}#36  x_{3,5,1}#37  x_{4,0,0}#38  x_{4,0,1}#39  x_{4,1,0}#40 
 x_{4,1,1}#41  x_{4,2,0}#42  x_{4,2,1}#43  x_{4,3,0}#44  x_{4,3,1}#45 
 x_{4,5,0}#46  x_{4,5,1}#47  x_{5,1,0}#48  x_{5,1,1}#49  x_{5,2,0}#50 
 x_{5,2,1}#51  x_{5,3,0}#52  x_{5,3,1}#53  x_{5,4,0}#54  x_{5,4,1}#55 
 x_{0,0,0}#56  x_{1,1,0}#57  x_{2,2,0}#58  x_{3,3,0}#59  x_{4,4,0}#60 
 x_{5,5,0}#61  x_{5,0,0}#62  x_{0,0,1}#63  x_{1,1,1}#64  x_{2,2,1}#65 
 x_{3,3,1}#66  x_{4,4,1}#67  x_{5,5,1}#68  x_{5,0,1}#69  x_{0,5,0}#70 
 x_{0,5,1}#71 
End
